
ASes= { 1, 2, 3, 4, 5, 6, 7, 8, 9, 10 } ;


Objects= { 1, 2, 3, 4, 5, 6, 7, 8, 9, 10, 11 } ;


QualityLevels= { 0, 1, 2, 3, 4, 5 } ;

Arcs = { <1,2,490000>, <2,1,490000>,<1,3,490000>, <3,1,490000>,<1,4,490000>, <4,1,490000>,<2,5,490000>, <5,2,490000>,<5,6,490000>, <6,5,490000>,<1,7,490000>, <7,1,490000>,<6,8,490000>, <8,6,490000>,<8,9,490000>, <9,8,490000>,<6,10,490000>, <10,6,490000> }; 


RatePerQuality= [ 0  300  700  1500  2500  3500 ] ;


CacheSpacePerQuality= [ 10000  11.25  26.25  56.25  93.75  131.25 ] ;


UtilityPerQuality= [ 0  0.2  0.4  0.6  0.8  1 ] ;


ObjectsPublishedByProducers=[ [ 0  0  1  0  0  0  0  0  0  0 ]  [ 0  0  0  0  0  0  0  0  0  1 ]  [ 0  0  0  0  0  0  0  0  1  0 ]  [ 0  0  0  1  0  0  0  0  0  0 ]  [ 0  0  0  0  0  0  1  0  0  0 ]  [ 0  0  0  0  0  0  1  0  0  0 ]  [ 0  0  0  0  0  0  0  0  1  0 ]  [ 0  0  0  0  0  0  0  0  1  0 ]  [ 0  0  1  0  0  0  0  0  0  0 ]  [ 0  0  1  0  0  0  0  0  0  0 ]  [ 0  0  0  0  0  0  0  0  0  1 ] ];

ObjRequests = {  <1,3,127>, <2,3,42>, <3,3,53>, <4,3,24>, <5,3,112>, <6,3,118>, <7,3,44>, <8,3,179>, <9,3,36>, <10,3,12>, <11,3,163>, <1,4,300>, <2,4,224>, <3,4,82>, <4,4,273>, <5,4,178>, <6,4,5>, <7,4,121>, <8,4,12>, <9,4,53>, <10,4,39>, <11,4,51>, <1,7,1304>, <2,7,57>, <3,7,78>, <4,7,212>, <5,7,61>, <6,7,32>, <7,7,51>, <8,7,11>, <9,7,141>, <10,7,115>, <11,7,7>, <1,9,596>, <2,9,6>, <3,9,298>, <4,9,111>, <5,9,144>, <6,9,236>, <7,9,110>, <8,9,75>, <9,9,77>, <10,9,44>, <11,9,29>, <1,10,381>, <2,10,1019>, <3,10,419>, <4,10,61>, <5,10,13>, <6,10,30>, <7,10,86>, <8,10,45>, <9,10,12>, <10,10,51>, <11,10,9> };

MaxCacheStorageAtSingleAS= [ 0  0  14.4375  14.4375  0  0  14.4375  0  14.4375  14.4375 ] ;

MaxCacheStorage = 72.1875 ;
Strategy = 0 ;
